DIMACS2
20 85 135 145 95 47 69 105 24 15 100 138 68 17 116 2 142 19 147 39 74
p edge 160 643
e 0 77 2.0
e 0 5 1.0
e 0 65 2.0
e 0 106 1.0
e 1 76 1.0
e 1 98 1.0
e 1 48 1.0
e 1 45 1.0
e 2 60 27.0
e 2 100 46.0
e 2 14 23.0
e 2 128 45.0
e 2 105 48.0
e 2 116 1.0
e 2 24 32.0
e 3 140 1.0
e 3 38 1.0
e 3 73 1.0
e 4 87 1.0
e 4 79 1.0
e 4 23 1.0
e 4 133 1.0
e 5 75 1.0
e 5 117 1.0
e 5 95 34.0
e 5 65 1.0
e 6 113 1.0
e 6 71 1.0
e 6 141 1.0
e 6 150 1.0
e 7 22 1.0
e 7 14 2.0
e 7 13 1.0
e 7 63 2.0
e 8 74 39.0
e 8 86 2.0
e 8 33 1.0
e 8 106 1.0
e 9 87 1.0
e 9 109 2.0
e 9 95 7.0
e 9 53 2.0
e 10 54 2.0
e 10 110 2.0
e 10 116 44.0
e 10 65 1.0
e 11 144 1.0
e 11 40 1.0
e 11 102 1.0
e 11 125 1.0
e 12 16 1.0
e 12 31 1.0
e 12 158 1.0
e 12 143 1.0
e 13 113 1.0
e 13 64 2.0
e 13 127 1.0
e 13 128 2.0
e 14 91 1.0
e 14 23 1.0
e 14 94 1.0
e 14 99 1.0
e 15 124 3.0
e 15 70 38.0
e 15 62 37.0
e 15 93 39.0
e 15 85 33.0
e 15 95 32.0
e 15 135 29.0
e 15 68 10.0
e 16 74 8.0
e 16 80 1.0
e 16 134 3.0
e 16 47 10.0
e 17 5 20.0
e 17 18 1.0
e 17 109 6.0
e 17 74 24.0
e 17 85 32.0
e 18 146 2.0
e 18 119 2.0
e 18 120 1.0
e 19 123 5.0
e 19 76 2.0
e 19 6 47.0
e 19 63 47.0
e 19 147 32.0
e 20 48 1.0
e 20 104 1.0
e 20 97 1.0
e 20 50 1.0
e 21 36 1.0
e 21 63 1.0
e 21 44 1.0
e 21 32 1.0
e 22 71 1.0
e 22 139 1.0
e 22 20 1.0
e 22 16 1.0
e 23 0 1.0
e 23 79 1.0
e 23 144 1.0
e 23 17 36.0
e 24 50 27.0
e 24 79 40.0
e 24 93 44.0
e 24 123 43.0
e 25 74 14.0
e 25 146 1.0
e 25 65 1.0
e 25 112 1.0
e 26 21 1.0
e 26 40 1.0
e 26 19 45.0
e 26 49 1.0
e 27 144 1.0
e 27 63 1.0
e 27 71 1.0
e 27 122 1.0
e 28 77 1.0
e 28 34 1.0
e 28 134 1.0
e 28 124 1.0
e 29 32 1.0
e 29 16 1.0
e 29 104 1.0
e 29 59 2.0
e 30 149 1.0
e 30 127 1.0
e 30 46 2.0
e 30 9 1.0
e 31 24 9.0
e 31 99 1.0
e 31 136 1.0
e 31 105 27.0
e 32 98 1.0
e 32 80 1.0
e 32 96 1.0
e 32 20 1.0
e 33 65 1.0
e 33 134 2.0
e 33 107 1.0
e 33 86 1.0
e 34 104 1.0
e 34 59 1.0
e 34 138 37.0
e 35 129 1.0
e 35 138 29.0
e 35 140 1.0
e 35 125 1.0
e 36 85 49.0
e 36 75 2.0
e 36 137 1.0
e 36 111 1.0
e 37 55 1.0
e 37 86 2.0
e 37 66 1.0
e 37 3 1.0
e 38 153 1.0
e 38 105 5.0
e 38 136 1.0
e 38 22 1.0
e 39 93 15.0
e 39 89 6.0
e 39 35 45.0
e 39 44 16.0
e 39 105 24.0
e 40 102 1.0
e 40 127 1.0
e 40 39 42.0
e 40 154 1.0
e 41 115 1.0
e 41 69 2.0
e 41 135 29.0
e 41 42 1.0
e 42 130 1.0
e 42 121 2.0
e 42 101 1.0
e 42 56 1.0
e 43 69 6.0
e 43 23 1.0
e 43 82 1.0
e 43 109 2.0
e 44 157 1.0
e 44 47 42.0
e 44 101 1.0
e 44 95 22.0
e 45 60 2.0
e 45 42 1.0
e 45 136 1.0
e 45 95 43.0
e 46 73 1.0
e 46 69 5.0
e 46 139 1.0
e 46 31 2.0
e 47 45 7.0
e 47 21 13.0
e 47 23 21.0
e 47 100 44.0
e 47 39 38.0
e 48 22 1.0
e 48 44 1.0
e 48 38 1.0
e 48 72 1.0
e 49 131 1.0
e 49 134 1.0
e 49 153 1.0
e 49 40 1.0
e 50 118 1.0
e 50 74 21.0
e 50 147 46.0
e 51 115 1.0
e 51 106 1.0
e 51 44 1.0
e 52 92 2.0
e 52 33 1.0
e 52 25 1.0
e 52 44 1.0
e 53 23 2.0
e 53 37 1.0
e 53 76 1.0
e 53 51 2.0
e 54 6 1.0
e 54 46 1.0
e 54 102 1.0
e 54 151 1.0
e 55 83 1.0
e 55 19 16.0
e 55 33 1.0
e 55 86 1.0
e 56 20 1.0
e 56 17 48.0
e 56 64 1.0
e 56 2 10.0
e 57 7 1.0
e 57 145 19.0
e 57 13 1.0
e 57 117 1.0
e 58 4 1.0
e 58 132 1.0
e 58 147 1.0
e 58 151 1.0
e 59 16 1.0
e 59 104 1.0
e 59 27 2.0
e 59 122 1.0
e 60 21 2.0
e 60 82 3.0
e 60 3 1.0
e 60 126 1.0
e 61 28 2.0
e 61 89 2.0
e 61 135 16.0
e 61 58 1.0
e 62 141 1.0
e 62 74 16.0
e 62 10 2.0
e 62 145 24.0
e 63 65 1.0
e 63 143 1.0
e 63 73 1.0
e 64 142 40.0
e 64 24 38.0
e 64 74 30.0
e 64 115 1.0
e 65 119 3.0
e 65 62 2.0
e 65 148 2.0
e 65 90 1.0
e 66 131 1.0
e 66 11 1.0
e 66 111 1.0
e 66 120 2.0
e 67 1 1.0
e 67 93 2.0
e 67 135 31.0
e 67 115 2.0
e 68 126 23.0
e 68 93 47.0
e 68 69 13.0
e 68 31 11.0
e 68 138 11.0
e 68 142 36.0
e 68 105 4.0
e 68 145 16.0
e 69 45 36.0
e 69 2 30.0
e 69 77 32.0
e 69 55 10.0
e 70 78 2.0
e 70 113 2.0
e 70 33 1.0
e 70 67 1.0
e 71 112 1.0
e 71 115 1.0
e 71 3 1.0
e 71 94 1.0
e 72 118 1.0
e 72 104 2.0
e 72 53 2.0
e 72 138 12.0
e 73 124 1.0
e 73 37 1.0
e 73 80 1.0
e 73 67 2.0
e 74 88 32.0
e 74 155 38.0
e 74 41 48.0
e 74 59 15.0
e 75 103 1.0
e 75 8 1.0
e 75 9 2.0
e 75 54 2.0
e 76 41 1.0
e 76 90 1.0
e 76 30 1.0
e 76 102 1.0
e 77 93 1.0
e 77 20 1.0
e 77 75 1.0
e 77 126 2.0
e 78 76 1.0
e 78 85 45.0
e 78 46 3.0
e 78 50 2.0
e 79 147 35.0
e 79 132 1.0
e 79 11 1.0
e 79 90 1.0
e 80 90 1.0
e 80 28 1.0
e 80 158 1.0
e 80 24 1.0
e 81 150 1.0
e 81 142 49.0
e 81 19 30.0
e 81 115 1.0
e 82 89 2.0
e 82 67 2.0
e 82 39 38.0
e 82 73 1.0
e 83 56 1.0
e 83 48 1.0
e 83 147 34.0
e 83 145 7.0
e 84 154 1.0
e 84 53 1.0
e 84 15 1.0
e 84 19 20.0
e 85 120 1.0
e 85 25 15.0
e 85 65 1.0
e 85 117 10.0
e 86 117 1.0
e 86 130 1.0
e 86 144 1.0
e 87 127 1.0
e 87 120 2.0
e 87 66 1.0
e 87 56 1.0
e 88 79 2.0
e 88 94 1.0
e 88 125 2.0
e 88 32 1.0
e 89 113 1.0
e 89 124 1.0
e 90 57 1.0
e 90 95 23.0
e 90 55 1.0
e 90 84 2.0
e 91 83 1.0
e 91 11 1.0
e 91 55 1.0
e 92 104 1.0
e 92 121 1.0
e 92 73 1.0
e 92 39 29.0
e 93 33 1.0
e 93 11 1.0
e 93 103 2.0
e 93 125 1.0
e 94 87 1.0
e 94 52 1.0
e 94 60 1.0
e 94 31 1.0
e 95 134 47.0
e 95 156 11.0
e 95 57 39.0
e 95 136 9.0
e 96 55 1.0
e 96 4 1.0
e 96 123 1.0
e 96 154 1.0
e 97 102 1.0
e 97 111 1.0
e 97 40 1.0
e 97 88 3.0
e 98 124 1.0
e 98 22 1.0
e 98 6 1.0
e 98 10 2.0
e 99 144 1.0
e 99 107 1.0
e 99 136 1.0
e 99 59 1.0
e 100 39 25.0
e 100 13 19.0
e 100 113 39.0
e 100 6 28.0
e 100 138 33.0
e 100 68 45.0
e 100 15 25.0
e 101 28 1.0
e 101 16 1.0
e 101 146 1.0
e 101 113 2.0
e 102 155 2.0
e 102 149 1.0
e 102 45 1.0
e 102 84 1.0
e 103 155 1.0
e 103 116 14.0
e 103 77 1.0
e 103 156 1.0
e 104 94 1.0
e 104 114 1.0
e 104 8 3.0
e 104 52 1.0
e 105 53 28.0
e 105 75 37.0
e 105 153 48.0
e 105 41 27.0
e 106 56 1.0
e 106 6 1.0
e 106 101 1.0
e 107 150 1.0
e 107 120 1.0
e 107 88 1.0
e 107 25 1.0
e 108 121 1.0
e 108 135 12.0
e 108 11 1.0
e 108 5 2.0
e 109 99 1.0
e 109 148 1.0
e 109 13 1.0
e 109 131 1.0
e 110 40 2.0
e 110 134 2.0
e 110 80 1.0
e 110 98 1.0
e 111 80 1.0
e 111 70 1.0
e 111 20 1.0
e 111 1 1.0
e 112 65 2.0
e 112 4 1.0
e 112 99 1.0
e 112 92 1.0
e 113 139 1.0
e 113 122 1.0
e 113 136 1.0
e 113 132 2.0
e 114 121 2.0
e 114 83 1.0
e 114 61 1.0
e 114 67 1.0
e 115 91 1.0
e 115 40 2.0
e 115 87 1.0
e 115 117 1.0
e 116 27 13.0
e 116 85 27.0
e 116 148 36.0
e 116 17 2.0
e 117 16 1.0
e 117 47 31.0
e 117 96 1.0
e 117 58 1.0
e 118 92 1.0
e 118 88 2.0
e 118 22 1.0
e 118 142 23.0
e 119 140 2.0
e 119 138 8.0
e 119 6 1.0
e 119 49 1.0
e 120 30 1.0
e 120 65 1.0
e 120 1 3.0
e 120 150 2.0
e 121 116 25.0
e 121 23 1.0
e 121 32 1.0
e 121 60 1.0
e 122 154 1.0
e 122 42 1.0
e 122 82 1.0
e 122 148 2.0
e 123 101 1.0
e 123 11 1.0
e 123 107 1.0
e 123 72 2.0
e 124 142 24.0
e 124 131 1.0
e 124 145 32.0
e 124 70 1.0
e 125 83 1.0
e 125 54 1.0
e 125 60 2.0
e 125 9 1.0
e 126 78 2.0
e 126 31 1.0
e 126 33 1.0
e 126 103 1.0
e 127 154 1.0
e 127 61 1.0
e 127 43 2.0
e 128 0 1.0
e 128 63 3.0
e 128 152 2.0
e 128 8 1.0
e 129 94 1.0
e 129 56 1.0
e 129 10 1.0
e 129 32 1.0
e 130 9 1.0
e 130 50 1.0
e 130 41 1.0
e 130 44 1.0
e 131 130 1.0
e 131 106 1.0
e 131 53 1.0
e 132 47 26.0
e 132 20 2.0
e 132 25 1.0
e 132 102 2.0
e 133 7 1.0
e 133 75 1.0
e 133 67 2.0
e 133 140 1.0
e 134 131 2.0
e 134 153 1.0
e 134 109 1.0
e 135 64 42.0
e 135 123 34.0
e 135 34 1.0
e 135 81 19.0
e 136 69 9.0
e 136 28 1.0
e 136 90 1.0
e 136 155 2.0
e 137 63 1.0
e 137 53 1.0
e 137 116 26.0
e 137 34 1.0
e 138 81 5.0
e 138 99 20.0
e 138 56 25.0
e 138 37 26.0
e 139 127 2.0
e 139 150 2.0
e 139 17 42.0
e 139 54 1.0
e 140 65 1.0
e 140 5 1.0
e 140 149 1.0
e 140 111 1.0
e 141 81 1.0
e 141 92 1.0
e 141 38 1.0
e 141 108 2.0
e 142 17 16.0
e 142 70 37.0
e 142 36 26.0
e 142 100 36.0
e 143 121 2.0
e 143 132 1.0
e 143 85 23.0
e 143 30 1.0
e 144 0 1.0
e 144 141 1.0
e 144 128 1.0
e 144 93 1.0
e 145 80 17.0
e 145 82 6.0
e 145 135 38.0
e 145 147 13.0
e 146 42 1.0
e 146 24 19.0
e 146 26 1.0
e 146 99 1.0
e 147 99 45.0
e 147 81 33.0
e 147 5 14.0
e 147 36 42.0
e 148 53 2.0
e 148 20 1.0
e 148 110 1.0
e 148 158 1.0
e 149 70 1.0
e 149 3 1.0
e 149 80 1.0
e 150 16 1.0
e 150 1 1.0
e 150 27 2.0
e 150 98 1.0
e 151 149 1.0
e 151 148 2.0
e 151 97 1.0
e 151 22 1.0
e 152 151 1.0
e 152 53 2.0
e 152 139 1.0
e 152 97 1.0
e 153 143 2.0
e 153 66 2.0
e 153 22 1.0
e 153 106 1.0
e 154 55 1.0
e 154 124 1.0
e 154 78 2.0
e 154 61 1.0
e 155 48 2.0
e 155 132 2.0
e 155 18 1.0
e 155 99 2.0
e 156 94 1.0
e 156 83 1.0
e 156 44 2.0
e 156 92 1.0
e 157 86 1.0
e 157 11 1.0
e 157 38 2.0
e 157 22 1.0
e 158 62 1.0
e 158 112 1.0
e 158 118 2.0
e 158 33 1.0
e 159 18 1.0
e 159 108 2.0
e 159 22 1.0
e 159 32 1.0
